generated by phonopy
   1.0
    11.6905307430443806    0.0000102543764056   -0.0000124896304538
     0.0000138008439582   15.5840409294257292    0.0000000120116746
    -0.0000120662136910   -0.0000000060996236   11.2822822459292524
La Mn O
  32   32   96
Direct
  0.0254568141746679  0.1249987692934122  0.4954219192022356
  0.5254568141746679  0.1249987692934122  0.4954219192022356
  0.0254568141746679  0.6249987692934122  0.4954219192022356
  0.5254568141746679  0.6249987692934122  0.4954219192022356
  0.0254568141746679  0.1249987692934122  0.9954219192022356
  0.5254568141746679  0.1249987692934122  0.9954219192022356
  0.0254568141746679  0.6249987692934122  0.9954219192022356
  0.5254568141746679  0.6249987692934122  0.9954219192022356
  0.4745431560446042  0.3750012232037171  0.0045781430246451
  0.9745431560446043  0.3750012232037171  0.0045781430246451
  0.4745431560446042  0.8750012232037172  0.0045781430246451
  0.9745431560446043  0.8750012232037172  0.0045781430246451
  0.4745431560446042  0.3750012232037171  0.5045781430246451
  0.9745431560446043  0.3750012232037171  0.5045781430246451
  0.4745431560446042  0.8750012232037172  0.5045781430246451
  0.9745431560446043  0.8750012232037172  0.5045781430246451
  0.2245430844515431  0.3750012231235324  0.2454219514288233
  0.7245430844515431  0.3750012231235324  0.2454219514288233
  0.2245430844515431  0.8750012231235325  0.2454219514288233
  0.7245430844515431  0.8750012231235325  0.2454219514288233
  0.2245430844515431  0.3750012231235324  0.7454219514288233
  0.7245430844515431  0.3750012231235324  0.7454219514288233
  0.2245430844515431  0.8750012231235325  0.7454219514288233
  0.7245430844515431  0.8750012231235325  0.7454219514288233
  0.2754569170855704  0.1249987803122497  0.2545780950883749
  0.7754569170855704  0.1249987803122497  0.2545780950883749
  0.2754569170855704  0.6249987803122498  0.2545780950883749
  0.7754569170855704  0.6249987803122498  0.2545780950883749
  0.2754569170855704  0.1249987803122497  0.7545780950883749
  0.7754569170855704  0.1249987803122497  0.7545780950883749
  0.2754569170855704  0.6249987803122498  0.7545780950883749
  0.7754569170855704  0.6249987803122498  0.7545780950883749
  0.2499999842636388  0.0000000009940723  0.0000000258796216 !Mn
  0.7499999842636388  0.0000000009940723  0.0000000258796216 !Mn
  0.0000000289585384  0.0000000043529889  0.2499999946754793 !Mn
  0.5000000289585383  0.0000000043529889  0.2499999946754793 !Mn
  0.2499999842636388  0.0000000009940723  0.5000000258796216 !Mn
  0.7499999842636388  0.0000000009940723  0.5000000258796216 !Mn
  0.0000000289585384  0.0000000043529889  0.7499999946754794 !Mn
  0.5000000289585383  0.0000000043529889  0.7499999946754794 !Mn
  0.0000000352528379  0.2500000315741569  0.2500000008129046 !Mn
  0.5000000352528379  0.2500000315741569  0.2500000008129046 !Mn
  0.2499999615266890  0.2499999980261822  0.4999999798698520 !Mn
  0.7499999615266890  0.2499999980261822  0.4999999798698520 !Mn
  0.2499999615266890  0.2499999980261822  0.9999999798698519 !Mn
  0.7499999615266890  0.2499999980261822  0.9999999798698519 !Mn
  0.0000000352528379  0.2500000315741569  0.7500000008129046 !Mn
  0.5000000352528379  0.2500000315741569  0.7500000008129046 !Mn
  0.2499999842636388  0.5000000009940723  0.0000000258796216 !Mn
  0.7499999842636388  0.5000000009940723  0.0000000258796216 !Mn
  0.0000000289585384  0.5000000043529889  0.2499999946754793 !Mn
  0.5000000289585383  0.5000000043529889  0.2499999946754793 !Mn
  0.2499999842636388  0.5000000009940723  0.5000000258796216 !Mn
  0.7499999842636388  0.5000000009940723  0.5000000258796216 !Mn
  0.0000000289585384  0.5000000043529889  0.7499999946754794 !Mn
  0.5000000289585383  0.5000000043529889  0.7499999946754794 !Mn
  0.0000000352528379  0.7500000315741568  0.2500000008129046 !Mn
  0.5000000352528379  0.7500000315741568  0.2500000008129046 !Mn
  0.2499999615266890  0.7499999980261822  0.4999999798698520 !Mn
  0.7499999615266890  0.7499999980261822  0.4999999798698520 !Mn
  0.0000000352528379  0.7500000315741568  0.7500000008129046 !Mn
  0.5000000352528379  0.7500000315741568  0.7500000008129046 !Mn
  0.2499999615266890  0.7499999980261822  0.9999999798698519 !Mn
  0.7499999615266890  0.7499999980261822  0.9999999798698519 !Mn
  0.2440352189357659  0.1249979152815399  0.0365816325639819
  0.7440352189357660  0.1249979152815399  0.0365816325639819
  0.2440352189357659  0.6249979152815399  0.0365816325639819
  0.7440352189357660  0.6249979152815399  0.0365816325639819
  0.2440352189357659  0.1249979152815399  0.5365816325639818
  0.7440352189357660  0.1249979152815399  0.5365816325639818
  0.2440352189357659  0.6249979152815399  0.5365816325639818
  0.7440352189357660  0.6249979152815399  0.5365816325639818
  0.2559647991868222  0.3750020880888524  0.4634183430812714
  0.7559647991868222  0.3750020880888524  0.4634183430812714
  0.2559647991868222  0.8750020880888524  0.4634183430812714
  0.7559647991868222  0.8750020880888524  0.4634183430812714
  0.2559647991868222  0.3750020880888524  0.9634183430812714
  0.7559647991868222  0.3750020880888524  0.9634183430812714
  0.2559647991868222  0.8750020880888524  0.9634183430812714
  0.7559647991868222  0.8750020880888524  0.9634183430812714
  0.0059647373594330  0.3750019980287403  0.2865815239892380
  0.5059647373594330  0.3750019980287403  0.2865815239892380
  0.0059647373594330  0.8750019980287402  0.2865815239892380
  0.5059647373594330  0.8750019980287402  0.2865815239892380
  0.0059647373594330  0.3750019980287403  0.7865815239892380
  0.5059647373594330  0.3750019980287403  0.7865815239892380
  0.0059647373594330  0.8750019980287402  0.7865815239892380
  0.5059647373594330  0.8750019980287402  0.7865815239892380
  0.4940352277294306  0.1249979560744303  0.2134183791276792
  0.9940352277294306  0.1249979560744303  0.2134183791276792
  0.4940352277294306  0.6249979560744303  0.2134183791276792
  0.9940352277294306  0.6249979560744303  0.2134183791276792
  0.4940352277294306  0.1249979560744303  0.7134183791276791
  0.9940352277294306  0.1249979560744303  0.7134183791276791
  0.4940352277294306  0.6249979560744303  0.7134183791276791
  0.9940352277294306  0.6249979560744303  0.7134183791276791
  0.0989604224612949  0.2689965343700165  0.1143432672356021
  0.5989604224612949  0.2689965343700165  0.1143432672356021
  0.0989604224612949  0.7689965343700165  0.1143432672356021
  0.5989604224612949  0.7689965343700165  0.1143432672356021
  0.0989604224612949  0.2689965343700165  0.6143432672356021
  0.5989604224612949  0.2689965343700165  0.6143432672356021
  0.0989604224612949  0.7689965343700165  0.6143432672356021
  0.5989604224612949  0.7689965343700165  0.6143432672356021
  0.4010395715940951  0.2310034643227658  0.3856567336274511
  0.9010395715940951  0.2310034643227658  0.3856567336274511
  0.4010395715940951  0.7310034643227658  0.3856567336274511
  0.9010395715940951  0.7310034643227658  0.3856567336274511
  0.4010395715940951  0.2310034643227658  0.8856567336274511
  0.9010395715940951  0.2310034643227658  0.8856567336274511
  0.4010395715940951  0.7310034643227658  0.8856567336274511
  0.9010395715940951  0.7310034643227658  0.8856567336274511
  0.1510391527277551  0.2310034461609362  0.3643428164197672
  0.6510391527277551  0.2310034461609362  0.3643428164197672
  0.1510391527277551  0.7310034461609363  0.3643428164197672
  0.6510391527277551  0.7310034461609363  0.3643428164197672
  0.1510391527277551  0.2310034461609362  0.8643428164197673
  0.6510391527277551  0.2310034461609362  0.8643428164197673
  0.1510391527277551  0.7310034461609363  0.8643428164197673
  0.6510391527277551  0.7310034461609363  0.8643428164197673
  0.3489608830677651  0.2689965726310701  0.1356572348614000
  0.8489608830677651  0.2689965726310701  0.1356572348614000
  0.3489608830677651  0.7689965726310701  0.1356572348614000
  0.8489608830677651  0.7689965726310701  0.1356572348614000
  0.3489608830677651  0.2689965726310701  0.6356572348614000
  0.8489608830677651  0.2689965726310701  0.6356572348614000
  0.3489608830677651  0.7689965726310701  0.6356572348614000
  0.8489608830677651  0.7689965726310701  0.6356572348614000
  0.4010400176244542  0.0189966079707569  0.3856582418453685
  0.9010400176244542  0.0189966079707569  0.3856582418453685
  0.4010400176244542  0.5189966079707569  0.3856582418453685
  0.9010400176244542  0.5189966079707569  0.3856582418453685
  0.4010400176244542  0.0189966079707569  0.8856582418453685
  0.9010400176244542  0.0189966079707569  0.8856582418453685
  0.4010400176244542  0.5189966079707569  0.8856582418453685
  0.9010400176244542  0.5189966079707569  0.8856582418453685
  0.0989599821866465  0.4810033979822579  0.1143417521403659
  0.5989599821866465  0.4810033979822579  0.1143417521403659
  0.0989599821866465  0.9810033979822579  0.1143417521403659
  0.5989599821866465  0.9810033979822579  0.1143417521403659
  0.0989599821866465  0.4810033979822579  0.6143417521403659
  0.5989599821866465  0.4810033979822579  0.6143417521403659
  0.0989599821866465  0.9810033979822579  0.6143417521403659
  0.5989599821866465  0.9810033979822579  0.6143417521403659
  0.3489602433154655  0.4810033833208033  0.1356584922850083
  0.8489602433154655  0.4810033833208033  0.1356584922850083
  0.3489602433154655  0.9810033833208034  0.1356584922850083
  0.8489602433154655  0.9810033833208034  0.1356584922850083
  0.3489602433154655  0.4810033833208033  0.6356584922850083
  0.8489602433154655  0.4810033833208033  0.6356584922850083
  0.3489602433154655  0.9810033833208034  0.6356584922850083
  0.8489602433154655  0.9810033833208034  0.6356584922850083
  0.1510397620529823  0.0189966048875184  0.3643414878409351
  0.6510397620529822  0.0189966048875184  0.3643414878409351
  0.1510397620529823  0.5189966048875183  0.3643414878409351
  0.6510397620529822  0.5189966048875183  0.3643414878409351
  0.1510397620529823  0.0189966048875184  0.8643414878409351
  0.6510397620529822  0.0189966048875184  0.8643414878409351
  0.1510397620529823  0.5189966048875183  0.8643414878409351
  0.6510397620529822  0.5189966048875183  0.8643414878409351
