BNOO                                    
   1.00000000000000     
    11.7195796967000003    0.0000000000000000    0.0000000000000000
     0.0000000000000000   11.7195796967000003    0.0000000000000000
     0.0000000000000000    0.0000000000000000    8.2869997024999993
   Na   Os   Ba   O 
     8     8    16    48
Selective dynamics
Direct
  0.0000000000000000  0.5000004430425361  0.5000000043001664   F   T   T
  0.5000004695167415  0.0000000000000000  0.5000000049436515   T   F   T
  0.2500000533153198  0.2499993232687316  0.0000000000000000   T   T   F
  0.7499998532254782  0.7500006438883671  0.0000000000000000   T   T   F
  0.7499999380936699  0.2499992483794228  0.0000000000000000   T   T   F
  0.2499998390606713  0.7500005155161797  0.0000000000000000   T   T   F
  0.0000000000000000  0.0000000000000000  0.5000000087840268   F   F   T
  0.5000002463568066  0.4999996786036209  0.5000000038414411   T   T   T
  0.2500007857950256  0.2500011160734104  0.4999999979640815   T   T   T
  0.2500004436344883  0.7499992738324314  0.5000000038579202   T   T   T
  0.7499995027659986  0.2500012026218126  0.5000000044602424   T   T   T
  0.7499996607577994  0.7499993625300980  0.5000000000757640   T   T   T
  0.0000000000000000  0.0000000000000000  0.0000000000000000   F   F   F
  0.0000000000000000  0.4999997181263066  0.0000000000000000   F   T   F
  0.4999998973846629  0.0000000000000000  0.0000000000000000   T   F   F
  0.4999999128867064  0.5000001661286154  0.0000000000000000   T   T   F
  0.0000000000000000  0.2499979383617008  0.2510728055156832   F   T   T
  0.4999984461622179  0.7500017315269704  0.2510757179708497   T   T   T
  0.0000000000000000  0.7500010125331241  0.7489279507714557   F   T   T
  0.5000002368743106  0.2499985485869646  0.7489263046956887   T   T   T
  0.0000000000000000  0.7500009975696843  0.2510719942945702   F   T   T
  0.5000002549739410  0.2499985642759719  0.2510736555599485   T   T   T
  0.0000000000000000  0.2499979422790667  0.7489272290735272   F   T   T
  0.4999984344785733  0.7500017284919969  0.7489243628862721   T   T   T
  0.2500009605170394  0.5000004064076242  0.7510832303363867   T   T   T
  0.7499987301031157  0.0000000000000000  0.7510711966818461   T   F   T
  0.7499985562011718  0.5000010098734823  0.2489172011120379   T   T   T
  0.2500008258020130  0.0000000000000000  0.2489283400047919   T   F   T
  0.7499985457616839  0.5000010094075641  0.7510827680959570   T   T   T
  0.2500008261944360  0.0000000000000000  0.7510716478335689   T   F   T
  0.2500009701041359  0.5000004547920357  0.2489168044891968   T   T   T
  0.7499987278096888  0.0000000000000000  0.2489288315504318   T   F   T
  0.1149860549166128  0.1135064015733305  0.0000000000000000   T   T   F
  0.6149863012844274  0.6135065883810409  0.0000000000000000   T   T   F
  0.3850137229319837  0.3864932718240569  0.0000000000000000   T   T   F
  0.8850139992231436  0.8864934961526594  0.0000000000000000   T   T   F
  0.8850141010412120  0.1135064421229346  0.0000000000000000   T   T   F
  0.3850134833434377  0.6135065622108171  0.0000000000000000   T   T   F
  0.6149861638500770  0.3864930946714574  0.0000000000000000   T   T   F
  0.1149861504175938  0.8864935762970112  0.0000000000000000   T   T   F
  0.0000000000000000  0.0000000000000000  0.2282628189027870   F   F   T
  0.4999998450563902  0.4999999011508138  0.2282616055190682   T   T   T
  0.0000000000000000  0.0000000000000000  0.7717371812746198   F   F   T
  0.4999998391104724  0.4999999309750841  0.7717383952396270   T   T   T
  0.8649978953737334  0.3634928817099607  0.4999999999822159   T   T   T
  0.3649977619646370  0.8634925430408998  0.5000000079725080   T   T   T
  0.1350020685867971  0.6365075640589121  0.4999999957013834   T   T   T
  0.6350025788915526  0.1365078233549472  0.4999999962227336   T   T   T
  0.6350017502076982  0.3634926616161106  0.5000000168624446   T   T   T
  0.1350029196518375  0.8634928858496630  0.5000000155847675   T   T   T
  0.8649974426181581  0.1365076057723466  0.4999999899285585   T   T   T
  0.3649985976341940  0.6365079913601178  0.4999999805794697   T   T   T
  0.7499997611285460  0.2500003952742197  0.7282601099265087   T   T   T
  0.2500004577684875  0.7499999826244168  0.7282601340237885   T   T   T
  0.7499997540746103  0.2500003855511053  0.2717398897063313   T   T   T
  0.2500004631584565  0.7499999557452993  0.2717398632288298   T   T   T
  0.3649983776920041  0.3634925282435214  0.5000000072471539   T   T   T
  0.8649978820854778  0.8634927715666921  0.5000000031745679   T   T   T
  0.1350027119438399  0.1365074357951585  0.4999999947622328   T   T   T
  0.6350016627605080  0.6365078875542934  0.4999999970685835   T   T   T
  0.1350022286926153  0.3634927844595863  0.5000000003878865   T   T   T
  0.6350028849146592  0.8634930658350907  0.4999999917121509   T   T   T
  0.8649981719421279  0.6365075188940787  0.5000000123750582   T   T   T
  0.3649976920842756  0.1365077994094694  0.4999999951574676   T   T   T
  0.2500003174334645  0.2500003416583825  0.7282601350478108   T   T   T
  0.7499999814118082  0.7500001745968297  0.7282597683322570   T   T   T
  0.2500003137633527  0.2500003178189773  0.2717398449360510   T   T   T
  0.7499999716892299  0.7500001651832129  0.2717402301318002   T   T   T
  0.1149865862130352  0.6135064411459603  0.0000000000000000   T   T   F
  0.6149856297490791  0.1135063355577838  0.0000000000000000   T   T   F
  0.8850135343623504  0.3864929657201194  0.0000000000000000   T   T   F
  0.3850140462062312  0.8864937749567536  0.0000000000000000   T   T   F
  0.8850134597341692  0.6135065343171088  0.0000000000000000   T   T   F
  0.3850141031767267  0.1135061707714333  0.0000000000000000   T   T   F
  0.1149866584471300  0.3864929535244117  0.0000000000000000   T   T   F
  0.6149855451905406  0.8864937806070564  0.0000000000000000   T   T   F
  0.0000000000000000  0.4999997482387543  0.2282614128834634   F   T   T
  0.4999998072665138  0.0000000000000000  0.2282633544553694   T   F   T
  0.0000000000000000  0.4999997218632859  0.7717385887600129   F   T   T
  0.4999998106050803  0.0000000000000000  0.7717366441882034   T   F   T
 
  0.00000000E+00  0.00000000E+00  0.00000000E+00
  0.00000000E+00  0.00000000E+00  0.00000000E+00
  0.00000000E+00  0.00000000E+00  0.00000000E+00
  0.00000000E+00  0.00000000E+00  0.00000000E+00
  0.00000000E+00  0.00000000E+00  0.00000000E+00
  0.00000000E+00  0.00000000E+00  0.00000000E+00
  0.00000000E+00  0.00000000E+00  0.00000000E+00
  0.00000000E+00  0.00000000E+00  0.00000000E+00
  0.00000000E+00  0.00000000E+00  0.00000000E+00
  0.00000000E+00  0.00000000E+00  0.00000000E+00
  0.00000000E+00  0.00000000E+00  0.00000000E+00
  0.00000000E+00  0.00000000E+00  0.00000000E+00
  0.00000000E+00  0.00000000E+00  0.00000000E+00
  0.00000000E+00  0.00000000E+00  0.00000000E+00
  0.00000000E+00  0.00000000E+00  0.00000000E+00
  0.00000000E+00  0.00000000E+00  0.00000000E+00
  0.00000000E+00  0.00000000E+00  0.00000000E+00
  0.00000000E+00  0.00000000E+00  0.00000000E+00
  0.00000000E+00  0.00000000E+00  0.00000000E+00
  0.00000000E+00  0.00000000E+00  0.00000000E+00
  0.00000000E+00  0.00000000E+00  0.00000000E+00
  0.00000000E+00  0.00000000E+00  0.00000000E+00
  0.00000000E+00  0.00000000E+00  0.00000000E+00
  0.00000000E+00  0.00000000E+00  0.00000000E+00
  0.00000000E+00  0.00000000E+00  0.00000000E+00
  0.00000000E+00  0.00000000E+00  0.00000000E+00
  0.00000000E+00  0.00000000E+00  0.00000000E+00
  0.00000000E+00  0.00000000E+00  0.00000000E+00
  0.00000000E+00  0.00000000E+00  0.00000000E+00
  0.00000000E+00  0.00000000E+00  0.00000000E+00
  0.00000000E+00  0.00000000E+00  0.00000000E+00
  0.00000000E+00  0.00000000E+00  0.00000000E+00
  0.00000000E+00  0.00000000E+00  0.00000000E+00
  0.00000000E+00  0.00000000E+00  0.00000000E+00
  0.00000000E+00  0.00000000E+00  0.00000000E+00
  0.00000000E+00  0.00000000E+00  0.00000000E+00
  0.00000000E+00  0.00000000E+00  0.00000000E+00
  0.00000000E+00  0.00000000E+00  0.00000000E+00
  0.00000000E+00  0.00000000E+00  0.00000000E+00
  0.00000000E+00  0.00000000E+00  0.00000000E+00
  0.00000000E+00  0.00000000E+00  0.00000000E+00
  0.00000000E+00  0.00000000E+00  0.00000000E+00
  0.00000000E+00  0.00000000E+00  0.00000000E+00
  0.00000000E+00  0.00000000E+00  0.00000000E+00
  0.00000000E+00  0.00000000E+00  0.00000000E+00
  0.00000000E+00  0.00000000E+00  0.00000000E+00
  0.00000000E+00  0.00000000E+00  0.00000000E+00
  0.00000000E+00  0.00000000E+00  0.00000000E+00
  0.00000000E+00  0.00000000E+00  0.00000000E+00
  0.00000000E+00  0.00000000E+00  0.00000000E+00
  0.00000000E+00  0.00000000E+00  0.00000000E+00
  0.00000000E+00  0.00000000E+00  0.00000000E+00
  0.00000000E+00  0.00000000E+00  0.00000000E+00
  0.00000000E+00  0.00000000E+00  0.00000000E+00
  0.00000000E+00  0.00000000E+00  0.00000000E+00
  0.00000000E+00  0.00000000E+00  0.00000000E+00
  0.00000000E+00  0.00000000E+00  0.00000000E+00
  0.00000000E+00  0.00000000E+00  0.00000000E+00
  0.00000000E+00  0.00000000E+00  0.00000000E+00
  0.00000000E+00  0.00000000E+00  0.00000000E+00
  0.00000000E+00  0.00000000E+00  0.00000000E+00
  0.00000000E+00  0.00000000E+00  0.00000000E+00
  0.00000000E+00  0.00000000E+00  0.00000000E+00
  0.00000000E+00  0.00000000E+00  0.00000000E+00
  0.00000000E+00  0.00000000E+00  0.00000000E+00
  0.00000000E+00  0.00000000E+00  0.00000000E+00
  0.00000000E+00  0.00000000E+00  0.00000000E+00
  0.00000000E+00  0.00000000E+00  0.00000000E+00
  0.00000000E+00  0.00000000E+00  0.00000000E+00
  0.00000000E+00  0.00000000E+00  0.00000000E+00
  0.00000000E+00  0.00000000E+00  0.00000000E+00
  0.00000000E+00  0.00000000E+00  0.00000000E+00
  0.00000000E+00  0.00000000E+00  0.00000000E+00
  0.00000000E+00  0.00000000E+00  0.00000000E+00
  0.00000000E+00  0.00000000E+00  0.00000000E+00
  0.00000000E+00  0.00000000E+00  0.00000000E+00
  0.00000000E+00  0.00000000E+00  0.00000000E+00
  0.00000000E+00  0.00000000E+00  0.00000000E+00
  0.00000000E+00  0.00000000E+00  0.00000000E+00
  0.00000000E+00  0.00000000E+00  0.00000000E+00
